
Log started (V11.0.0) Sun Apr 13 12:59:23 2008

Tried aggregator 1 time.
Reduced MIP has 110 rows, 1001 columns, and 2010 nonzeros.
Presolve time =    0.00 sec.
Clique table members: 100.
MIP emphasis: balance optimality and feasibility.
MIP search method: dynamic search.
Parallel mode: none, using 1 thread.
Root relaxation solution time =    0.02 sec.

        Nodes                                         Cuts/
   Node  Left     Objective  IInf  Best Integer     Best Node    ItCnt     Gap

*     0+    0                         4875.0000       97.4835      224   98.00%
*     0+    0                          114.0000       97.4835      224   14.49%
      0     0       98.2243    25      114.0000     Fract: 10      235   13.84%
*     0+    0                          111.0000       98.2243      235   11.51%
      0     0       98.4313    35      111.0000       Cuts: 7      247   11.32%
*     0+    0                          108.0000       98.4313      247    8.86%
      0     0       98.4544    38      108.0000       Cuts: 5      255    8.84%
*     0+    0                          107.0000       98.4544      255    7.99%
      0     0       98.5263    45      107.0000       Cuts: 6      267    7.92%
      0     0       98.5986    49      107.0000       Cuts: 4      282    7.85%
      0     0       98.6263    44      107.0000       Cuts: 6      291    7.83%
      0     0       98.6870    49      107.0000       Cuts: 4      302    7.77%
      0     0       98.6983    48      107.0000       Cuts: 2      311    7.76%
      0     0       98.6999    54      107.0000     Covers: 2      313    7.76%
      0     0       98.7018    50      107.0000     Covers: 1      315    7.76%
*     0+    0                          105.0000       98.7018      315    6.00%
*     0+    0                          103.0000       98.7018      315    4.17%

Repeating presolve.
Tried aggregator 1 time.
MIP Presolve eliminated 0 rows and 495 columns.
Aggregator did 4 substitutions.
Reduced MIP has 106 rows, 502 columns, and 1012 nonzeros.
Tried aggregator 1 time.
Represolve time =    0.02 sec.
Clique table members: 255.
MIP emphasis: balance optimality and feasibility.
MIP search method: dynamic search.
Parallel mode: none, using 1 thread.
Root relaxation solution time =    0.02 sec.

        Nodes                                         Cuts/
   Node  Left     Objective  IInf  Best Integer     Best Node    ItCnt     Gap

      0     0       99.0000    44      103.0000       99.0000      131    3.88%
      0     2       99.0000    44      103.0000       99.0000      131    3.88%
    100    60      101.0000    15      103.0000       99.0000     1916    3.88%
    200   119      101.0000    31      103.0000       99.0000     3957    3.88%
    300   195      101.0000    32      103.0000       99.0000     7415    3.88%
    400   265      102.0000    23      103.0000       99.0000    10595    3.88%
*   420+  214                          102.0000       99.0000    11126    2.94%
    500   280      101.0000    25      102.0000       99.0000    13382    2.94%
*   531+  198                          101.0000      100.0000    15870    0.99%
    600   155      100.0000    54      101.0000      100.0000    21019    0.99%

Cover cuts applied:  121
Mixed integer rounding cuts applied:  19
Zero-half cuts applied:  2
Gomory fractional cuts applied:  22

Solution pool: 9 solutions saved.

MIP - Integer optimal solution:  Objective = 1.0100000000e+002
Solution time =    3.42 sec.  Iterations = 21983  Nodes = 608 (145)


Incumbent solution
Variable Name           Solution Value
Cmax                        101.000000
X_1_1                         1.000000
X_2_8                         1.000000
X_3_9                         1.000000
X_4_4                         1.000000
X_5_1                         1.000000
X_6_9                         1.000000
X_7_6                         1.000000
X_8_7                         1.000000
X_9_5                         1.000000
X_10_1                        1.000000
X_11_9                        1.000000
X_12_5                        1.000000
X_13_7                        1.000000
X_14_7                        1.000000
X_15_4                        1.000000
X_16_6                        1.000000
X_17_10                       1.000000
X_18_8                        1.000000
X_19_1                        1.000000
X_20_5                        1.000000
X_21_9                        1.000000
X_22_6                        1.000000
X_23_1                        1.000000
X_24_3                        1.000000
X_25_7                        1.000000
X_26_7                        1.000000
X_27_8                        1.000000
X_28_2                        1.000000
X_29_8                        1.000000
X_30_10                       1.000000
X_31_9                        1.000000
X_32_4                        1.000000
X_33_6                        1.000000
X_34_7                        1.000000
X_35_3                        1.000000
X_36_10                       1.000000
X_37_3                        1.000000
X_38_3                        1.000000
X_39_1                        1.000000
X_40_10                       1.000000
X_41_2                        1.000000
X_42_3                        1.000000
X_43_10                       1.000000
X_44_6                        1.000000
X_45_2                        1.000000
X_46_5                        1.000000
X_47_8                        1.000000
X_48_2                        1.000000
X_49_7                        1.000000
X_50_7                        1.000000
X_51_4                        1.000000
X_52_3                        1.000000
X_53_5                        1.000000
X_54_8                        1.000000
X_55_4                        1.000000
X_56_5                        1.000000
X_57_5                        1.000000
X_58_6                        1.000000
X_59_2                        1.000000
X_60_5                        1.000000
X_61_7                        1.000000
X_62_5                        1.000000
X_63_1                        1.000000
X_64_3                        1.000000
X_65_6                        1.000000
X_66_5                        1.000000
X_67_7                        1.000000
X_68_9                        1.000000
X_69_5                        1.000000
X_70_4                        1.000000
X_71_10                       1.000000
X_72_2                        1.000000
X_73_8                        1.000000
X_74_6                        1.000000
X_75_4                        1.000000
X_76_9                        1.000000
X_77_2                        1.000000
X_78_6                        1.000000
X_79_8                        1.000000
X_80_1                        1.000000
X_81_9                        1.000000
X_82_3                        1.000000
X_83_9                        1.000000
X_84_2                        1.000000
X_85_10                       1.000000
X_86_9                        1.000000
X_87_4                        1.000000
X_88_9                        1.000000
X_89_3                        1.000000
X_90_2                        1.000000
X_91_1                        1.000000
X_92_5                        1.000000
X_93_1                        1.000000
X_94_6                        1.000000
X_95_5                        1.000000
X_96_10                       1.000000
X_97_9                        1.000000
X_98_3                        1.000000
X_99_6                        1.000000
X_100_8                       1.000000
All other variables in the range 1-1001 are 0.
